

*************************************************************

   NEOS Server Version 6.0
   Job#     : 18083007
   Password : DwZLiVku
   User     :
   Solver   : lp:Gurobi:MPS
   Start    : 2025-12-03 06:42:05
   End      : 2025-12-03 06:42:38
   Host     : prod-sub-1.neos-server.org

   Disclaimer:

   This information is provided without any express or
   implied warranty. In particular, there is no warranty
   of any kind concerning the fitness of this
   information for any particular purpose.

   Announcements:
*************************************************************
Set parameter TokenServer to value "opt-license.discovery.wisc.edu"
Read MPS format model from file model.mps
Reading time = 0.00 seconds
: 1867 rows, 742 columns, 5693 nonzeros


Checking threads settings... (NEOS allows a maximum of 4 threads)
Set parameter Threads to value 4
Gurobi Optimizer version 12.0.3 build v12.0.3rc0 (linux64 - "Rocky Linux 8.10 (Green Obsidian)")

CPU model: Intel(R) Xeon(R) Gold 5218 CPU @ 2.30GHz, instruction set [SSE2|AVX|AVX2|AVX512]
Thread count: 32 physical cores, 64 logical processors, using up to 4 threads

Non-default parameters:
Threads  4

Optimize a model with 1867 rows, 742 columns and 5693 nonzeros
Model fingerprint: 0xc957c9d7
Variable types: 458 continuous, 284 integer (284 binary)
Coefficient statistics:
  Matrix range     [1e-01, 5e+04]
  Objective range  [6e+02, 4e+03]
  Bounds range     [1e-01, 3e+01]
  RHS range        [4e-02, 5e+04]
Presolve removed 209 rows and 91 columns
Presolve time: 0.02s
Presolved: 1658 rows, 651 columns, 5345 nonzeros
Variable types: 380 continuous, 271 integer (271 binary)

Root relaxation: objective 9.770127e+04, 1932 iterations, 0.10 seconds (0.09 work units)

    Nodes    |    Current Node    |     Objective Bounds      |     Work
 Expl Unexpl |  Obj  Depth IntInf | Incumbent    BestBd   Gap | It/Node Time

     0     0 97701.2676    0   69          - 97701.2676      -     -    0s
     0     0 97701.2676    0   66          - 97701.2676      -     -    0s
     0     0 97701.2676    0   63          - 97701.2676      -     -    0s
     0     0 97701.2676    0   24          - 97701.2676      -     -    0s
     0     0 97701.2676    0   23          - 97701.2676      -     -    0s
     0     0 97701.2676    0   20          - 97701.2676      -     -    0s
     0     0 97701.2676    0   13          - 97701.2676      -     -    0s
     0     0 97701.2676    0   12          - 97701.2676      -     -    0s
     0     0 97701.2676    0   12          - 97701.2676      -     -    0s
     0     2 97701.2676    0   12          - 97701.2676      -     -    0s
  2300  1748 97701.2676   25   11          - 97701.2676      -  26.0    5s
  7464  5541 97701.2676  139   22          - 97701.2676      -  50.5   10s
*10666  6679             249    98388.907582 97701.2676  0.70%  55.6   13s
*10668  6679             248    98388.883660 97701.2676  0.70%  55.6   13s
H10948  6546                    98382.186446 97701.2676  0.69%  55.9   13s
H10956  6002                    98139.913155 97701.2676  0.45%  55.9   13s
 11881  6963 97701.2676   50   10 98139.9132 97701.2676  0.45%  58.5   15s
H12731  7539                    98139.913101 97701.2676  0.45%  59.9   15s
H12877  7539                    98139.911922 97701.2676  0.45%  60.5   15s
H13311  7996                    98139.911836 97701.2676  0.45%  62.3   16s
H14217  8476                    98139.911772 97701.2676  0.45%  66.5   18s
H14379  8649                    98139.911606 97701.2676  0.45%  67.7   18s
 14863  8942 97701.2676  159   10 98139.9116 97701.2676  0.45%  68.9   20s
H14896  8942                    98139.909688 97701.2676  0.45%  69.4   20s
H14975  8763                    98055.887714 97701.2676  0.36%  69.6   20s
H14977   299                    97701.267561 97701.2676  0.00%  69.7   20s

Cutting planes:
  Learned: 5
  Gomory: 2
  Cover: 13
  Projected implied bound: 1
  Clique: 1
  MIR: 7
  Flow cover: 10
  Relax-and-lift: 1

Explored 15060 nodes (1132538 simplex iterations) in 20.71 seconds (32.27 work units)
Thread count was 4 (of 64 available processors)

Solution count 8: 97701.3 98055.9 98139.9 ... 98388.9

Optimal solution found (tolerance 1.00e-04)
Best objective 9.770126756137e+04, best bound 9.770126756137e+04, gap 0.0000%


NEOS Server Home
